NAME :  IRP
COMMENT : 
TYPE :  CVRP
DIMENSION : 	14
EDGE_WEIGHT_TYPE : 	EUC_2D
CAPACITY : 	779
NODE_COORD_SECTION
1	180	493
2	22	382
3	33	291
4	27	178
5	74	54
6	171	133
7	403	439
8	364	304
9	462	196
10	494	50
11	364	81
12	274	141
13	252	148
14	207	232
DEMAND_SECTION
1	0
2	108
3	149
4	160
5	198
6	164
7	66
8	66
9	168
10	51
11	110
12	84
13	117
14	106
DEPOT_SECTION
	1
	-1
EOF
